Geographic Exponential Decay
40 226 125 198 94 68 7 99 189 303 83 211 249 166 188 157 178 252 206 184 179 304 142 300 21 213 36 100 32 47 186 269 8 39 149 173 115 263 239 231 165
p edge 320 328
e 0 221 1.0
e 1 19 1.0
e 1 0 1.0
e 2 123 5.0
e 2 1 3.0
e 3 132 2.0
e 3 2 2.0
e 4 93 6.0
e 4 3 2.0
e 5 30 3.0
e 5 4 5.0
e 6 222 6.0
e 6 5 1.0
e 7 43 75.0
e 7 143 86.0
e 7 301 62.0
e 7 129 43.0
e 7 172 55.0
e 7 6 58.0
e 8 102 68.0
e 8 305 91.0
e 8 52 84.0
e 8 44 94.0
e 8 316 55.0
e 8 7 91.0
e 9 187 5.0
e 9 8 95.0
e 10 213 3.0
e 10 9 3.0
e 11 62 1.0
e 11 10 12.0
e 12 307 1.0
e 12 11 1.0
e 13 298 1.0
e 13 12 3.0
e 14 317 17.0
e 15 16 2.0
e 15 13 1.0
e 17 171 1.0
e 17 15 2.0
e 18 103 1.0
e 18 17 1.0
e 20 21 89.0
e 20 18 9.0
e 21 35 57.0
e 21 127 38.0
e 21 223 6.0
e 21 296 48.0
e 22 260 3.0
e 22 20 6.0
e 23 191 5.0
e 23 167 16.0
e 23 22 6.0
e 24 84 1.0
e 24 23 12.0
e 25 199 2.0
e 25 24 1.0
e 26 27 2.0
e 26 25 3.0
e 28 233 5.0
e 28 26 1.0
e 29 46 2.0
e 29 28 5.0
e 31 318 1.0
e 31 29 1.0
e 32 165 74.0
e 32 33 53.0
e 32 34 44.0
e 32 144 98.0
e 32 229 75.0
e 36 37 52.0
e 36 284 98.0
e 36 216 85.0
e 36 286 83.0
e 36 280 54.0
e 36 31 46.0
e 38 217 4.0
e 38 80 24.0
e 38 36 25.0
e 39 140 86.0
e 39 231 1.0
e 39 40 57.0
e 39 294 12.0
e 39 234 14.0
e 41 79 4.0
e 41 38 9.0
e 42 45 43.0
e 42 195 21.0
e 42 230 38.0
e 42 41 46.0
e 47 238 69.0
e 47 263 87.0
e 47 241 2.0
e 47 124 70.0
e 47 178 50.0
e 48 141 1.0
e 48 42 34.0
e 49 183 16.0
e 49 70 11.0
e 49 48 20.0
e 50 253 1.0
e 50 49 14.0
e 51 139 20.0
e 51 302 3.0
e 51 50 1.0
e 53 121 1.0
e 53 51 3.0
e 54 168 1.0
e 54 53 1.0
e 55 69 2.0
e 55 54 1.0
e 56 246 2.0
e 56 55 4.0
e 57 276 1.0
e 57 56 2.0
e 58 116 3.0
e 58 57 1.0
e 59 106 10.0
e 59 58 6.0
e 60 61 1.0
e 60 59 2.0
e 63 312 1.0
e 63 60 2.0
e 64 65 10.0
e 64 63 10.0
e 66 196 4.0
e 66 64 4.0
e 67 94 33.0
e 67 66 2.0
e 68 181 45.0
e 68 82 3.0
e 68 264 48.0
e 68 299 43.0
e 68 142 6.0
e 71 99 31.0
e 72 73 1.0
e 72 67 2.0
e 74 173 24.0
e 75 83 36.0
e 75 72 1.0
e 76 77 6.0
e 76 75 1.0
e 78 81 24.0
e 78 76 2.0
e 81 257 21.0
e 83 85 71.0
e 83 86 14.0
e 83 107 55.0
e 83 87 38.0
e 85 88 7.0
e 89 182 13.0
e 90 265 1.0
e 90 78 6.0
e 91 162 1.0
e 91 90 6.0
e 92 256 6.0
e 92 91 1.0
e 94 95 17.0
e 94 258 60.0
e 94 169 26.0
e 94 146 72.0
e 96 97 1.0
e 96 92 9.0
e 98 308 1.0
e 98 96 1.0
e 99 100 14.0
e 99 156 48.0
e 99 207 72.0
e 99 259 87.0
e 100 101 79.0
e 100 154 80.0
e 100 250 55.0
e 100 179 37.0
e 104 105 1.0
e 104 98 1.0
e 108 300 61.0
e 109 197 12.0
e 109 104 3.0
e 110 224 5.0
e 110 109 12.0
e 111 235 7.0
e 111 225 2.0
e 111 110 2.0
e 112 306 3.0
e 112 111 5.0
e 113 303 34.0
e 114 115 90.0
e 115 125 34.0
e 115 117 34.0
e 115 118 7.0
e 115 119 44.0
e 120 122 10.0
e 120 112 3.0
e 125 267 60.0
e 125 126 80.0
e 125 128 58.0
e 125 130 97.0
e 131 309 5.0
e 131 120 12.0
e 133 200 23.0
e 133 134 4.0
e 133 131 24.0
e 135 193 23.0
e 135 231 79.0
e 135 190 19.0
e 136 137 12.0
e 137 231 78.0
e 138 261 2.0
e 138 133 2.0
e 142 145 39.0
e 142 288 7.0
e 142 184 38.0
e 142 147 54.0
e 148 149 98.0
e 148 138 1.0
e 149 150 27.0
e 149 283 40.0
e 149 151 100.0
e 149 313 31.0
e 152 159 1.0
e 152 148 1.0
e 153 180 11.0
e 153 152 5.0
e 155 254 11.0
e 155 157 31.0
e 157 285 37.0
e 157 179 9.0
e 157 158 9.0
e 157 262 76.0
e 160 252 1.0
e 161 163 23.0
e 161 153 10.0
e 163 310 19.0
e 164 170 1.0
e 164 161 3.0
e 165 188 85.0
e 165 166 25.0
e 165 266 39.0
e 165 173 87.0
e 166 173 85.0
e 166 174 89.0
e 166 175 16.0
e 166 176 1.0
e 173 281 60.0
e 173 300 26.0
e 177 178 15.0
e 178 236 30.0
e 178 226 21.0
e 178 198 26.0
e 179 182 20.0
e 179 184 76.0
e 179 185 32.0
e 184 186 57.0
e 184 188 69.0
e 184 189 91.0
e 186 188 11.0
e 186 279 56.0
e 186 189 57.0
e 186 237 52.0
e 188 263 61.0
e 188 189 10.0
e 189 194 90.0
e 189 192 85.0
e 198 267 51.0
e 198 201 50.0
e 198 317 36.0
e 198 214 83.0
e 202 203 1.0
e 202 164 4.0
e 204 205 4.0
e 204 202 1.0
e 206 207 9.0
e 206 208 17.0
e 206 209 46.0
e 206 210 44.0
e 206 211 80.0
e 211 212 44.0
e 211 213 63.0
e 211 215 16.0
e 211 218 5.0
e 213 219 1.0
e 213 220 25.0
e 213 255 81.0
e 226 227 53.0
e 226 228 31.0
e 226 231 65.0
e 226 232 23.0
e 231 239 52.0
e 239 277 80.0
e 239 240 76.0
e 239 242 50.0
e 239 263 56.0
e 243 244 25.0
e 243 247 4.0
e 243 204 23.0
e 245 248 3.0
e 245 249 99.0
e 249 251 3.0
e 249 252 52.0
e 249 263 21.0
e 249 267 49.0
e 252 263 82.0
e 252 268 60.0
e 252 269 32.0
e 269 270 21.0
e 269 271 3.0
e 269 272 19.0
e 269 304 66.0
e 273 274 1.0
e 273 243 14.0
e 275 278 1.0
e 275 273 8.0
e 282 287 17.0
e 282 289 3.0
e 282 275 19.0
e 290 291 9.0
e 290 282 15.0
e 292 293 5.0
e 292 290 10.0
e 295 297 1.0
e 295 292 3.0
e 300 315 77.0
e 300 303 19.0
e 300 304 30.0
e 303 304 46.0
e 303 311 43.0
e 303 314 57.0
e 304 319 93.0
